CUST NO.,XCOORD.,YCOORD.,updated_SERVICE_TIME,DEMAND,TW_START,TW_END
1,41,49.0,8,0.8999999999999999,650.0,1000.0
2,35,17.0,8,0.6,0.0,600.0
5,15,30.0,8,1.4,0.0,600.0
7,20,50.0,8,0.5,0.0,600.0
8,10,43.0,8,2.5,0.0,600.0
9,55,60.0,8,1.8,0.0,600.0
10,30,60.0,8,1.7,400.0,750.0
11,20,65.0,8,0.7,0.0,600.0
12,50,35.0,8,0.8,0.0,600.0
13,30,25.0,8,1.0,650.0,1000.0
16,10,20.0,8,3.2,0.0,600.0
25,65,20.0,8,0.4,400.0,750.0
26,35,35.0,0,0.0,0.0,0.0
capacity,1000,,0,0.0,,
